Version identifier: 20.1.0.0 | 2020-11-10 | 9bedb6d68
CPXPARAM_Threads                                 1
CPXPARAM_TimeLimit                               7200
CPXPARAM_MIP_Tolerances_MIPGap                   0
Generic callback                                 0x60
1 of 1 MIP starts provided solutions.
MIP start 'm1' defined initial solution with objective 500.0740.
Tried aggregator 1 time.
Reduced MIP has 400501 rows, 400801 columns, and 1200800 nonzeros.
Reduced MIP has 800 binaries, 0 generals, 0 SOSs, and 0 indicators.
Presolve time = 0.41 sec. (379.65 ticks)
Probing time = 0.05 sec. (50.06 ticks)
Tried aggregator 1 time.
Reduced MIP has 400501 rows, 400801 columns, and 1200800 nonzeros.
Reduced MIP has 800 binaries, 0 generals, 0 SOSs, and 0 indicators.
Presolve time = 0.40 sec. (373.16 ticks)
Probing time = 0.05 sec. (50.06 ticks)
MIP emphasis: balance optimality and feasibility.
MIP search method: dynamic search.
Parallel mode: none, using 1 thread.
Root relaxation solution time = 0.14 sec. (154.23 ticks)

        Nodes                                         Cuts/
   Node  Left     Objective  IInf  Best Integer    Best Bound    ItCnt     Gap

*     0+    0                          500.0740     2716.0000           443.12%
      0     0      502.5453     4      500.0740     2716.0000        0  443.12%
      0     2      502.5453     4      500.0740      502.5453        0    0.49%
Elapsed time = 365.66 sec. (301642.18 ticks, tree = 0.01 MB, solutions = 1)
*     1     1      integral     0      502.4424      502.5453      272    0.02%
      2     0        cutoff            502.4424      502.4424      888    0.00%

User cuts applied:  4

Root node processing (before b&c):
  Real time             =  365.64 sec. (301629.83 ticks)
Sequential b&c:
  Real time             =   15.00 sec. (8379.28 ticks)
                          ------------
Total (root+branch&cut) =  380.64 sec. (310009.11 ticks)
@Parameters: 
is_S_cut                                true
is_add_all_yinF                         true
is_start_value                          true
is_usercut                              true
is_visualization                        false
uc_only_rootnode                        false

data                                    Qi
fn                                      data/Qi/instance_500_800.csv
mode                                    ZLP
solver                                  cplex

p                                       2
r                                       50

EPS                                     1.0e-06
EPS_vio                                 1.0e-04
beta                                    0.10
gap                                     0.00
nodelimit                               Inf
timelimit                               7200.00


@PrintInfos
ItCnt: 888
Current gap: 0.00 %
Termination Status: OPTIMAL
Primal Status: FEASIBLE_POINT
Solve Time: 380.64 sec
Objective Value: 502.442364
Number of Nodes:      3

CutInfo: [phase] num / time (sec) 
ZLP             [phase1]     0 / 0.00 [rLC]     4 / 4.91 [rUC]     2 / 1.71 [sLC]     0 / 0.37 [sUC]     2 / 1.51 
OldSubmodular   [phase1]     0 / 0.00 [rLC]     0 / 0.00 [rUC]     0 / 0.00 [sLC]     0 / 0.00 [sUC]     0 / 0.00 
NewSubmodular   [phase1]     0 / 0.00 [rLC]     0 / 0.00 [rUC]     0 / 0.00 [sLC]     0 / 0.00 [sUC]     0 / 0.00 
PMP             [phase1]     0 / 0.00 [rLC]     5 / 1.26 [rUC]     2 / 0.54 [sLC]     1 / 0.20 [sUC]     2 / 0.51 
Separation Round: [phase1] 0  [rLC] 5  [rUC] 2  [sLC] 1  [sUC] 2
Root Best Bound 502.442364
Root Best Integer: 502.442364
Best Bound: 502.442364
Best Integer: 502.442364

